50
13287

508 804
253 911
633 179
403 610
910 998
37 995
265 947
941 483
362 435
693 431
917 758
339 481
789 75
38 910
679 385
536 307
390 131
161 575
704 542
782 783
333 458
615 274
631 849
785 995
415 379
306 234
551 675
972 371
864 118
473 264
53 68
229 592
679 537
157 673
957 730
577 440
420 694
612 113
110 828
418 212
342 438
416 394
468 78
798 115
625 947
31 585
52 829
108 606
564 662
460 740
